TCS_Benchmarks/redos_fix/corpus1_output_distinct_3634_3633_32_0.smt2
(set-logic QF_S)
(declare-const x String)
(assert (str.in.re x (re.inter  (re.++ (re.+ (re.union (re.range "\u{00}" "\u{09}") (re.range "\u{0b}" "\u{0c}") (re.range "\u{0e}" "\u{84}") (re.range "\u{86}" "\u{ff}")) ) (re.+ (re.range "\u{30}" "\u{39}") ))  (re.++ (re.+ (re.union (re.range "\u{00}" "\u{09}") (re.range "\u{0b}" "\u{0c}") (re.range "\u{0e}" "\u{84}") (re.range "\u{86}" "\u{ff}")) ) (re.++  (re.++  (str.to.re "\u{53}") (re.++  (str.to.re "\u{50}") (re.++  (str.to.re "\u{48}") (re.++  (str.to.re "\u{45}") (re.++  (str.to.re "\u{52}") (re.++  (str.to.re "\u{4f}") (re.++  (str.to.re "\u{49}") (re.++  (str.to.re "\u{44}") (re.++  (str.to.re "\u{5b}") (re.++  (str.to.re "\u{22}") (re.++ (re.+ (re.union (re.range "\u{00}" "\u{09}") (re.range "\u{0b}" "\u{0c}") (re.range "\u{0e}" "\u{84}") (re.range "\u{86}" "\u{ff}")) ) (re.++  (str.to.re "\u{22}") (re.++  (str.to.re "\u{2c}") (re.++  (re.++ (re.+ (re.range "\u{30}" "\u{39}") ) (re.opt  (re.++  (str.to.re "\u{2e}") (re.+ (re.range "\u{30}" "\u{39}") )) )) (re.++  (str.to.re "\u{2c}") (re.++  (re.++ (re.range "\u{30}" "\u{39}") (re.++ (re.range "\u{30}" "\u{39}") (re.range "\u{30}" "\u{39}")))  (str.to.re "\u{2e}"))))))))))))))))) (re.+ (re.range "\u{30}" "\u{39}") ))) )))
(check-sat)
(get-model)