TCS_Benchmarks/redos_fix/corpus1_output_distinct_3634_3633_32_0.txt
(.+)(\d+)
(.+)(SPHEROID\[\"(.+)\",(\d+(\.\d+)?),\d{3}\.)(\d+)